NAME : toy-problem
COMMENT : 5 points
COMMENT: Data from https://www.google.com/sky/#latitude=69.27276405942452&longitude=-32.94125194551579&zoom=8
TYPE : TSP
DIMENSION : 5
EDGE_WEIGHT_TYPE : EUC_2D
NODE_COORD_SECTION
1 35598 251501
2 35756 250852
3 35734 248644
4 34936 249270
5 34470 251399
EOF
